s td 20 2 20
b 1 2 8
b 2 10 12
b 3 8 11
b 4 8 19
b 5 13 20
b 6 12 15
b 7 5 12
b 8 1 19
b 9 1 6
b 10 4 6
b 11 4 16
b 12 5 16
b 13 5 9
b 14 3 9
b 15 3 17
b 16 17 20
b 17 20
b 18 7
b 19 14
b 20 18
1 4
1 18
1 19
1 20
2 7
3 4
4 8
5 17
6 7
7 13
8 9
9 10
10 11
11 12
12 13
13 14
14 15
15 16
16 17
